TC_ILP/h2v2_smooth_downsample_dfg__6_1.0.lp
Minimize
M1 + M2
Subject To
x0,10 + x0,11 + x0,12 + x0,13 + x0,14 + x0,15 + x0,16 + x0,17 = 1
x1,11 + x1,12 + x1,13 + x1,14 + x1,15 + x1,16 + x1,17 = 1
x2,10 + x2,11 + x2,12 + x2,13 + x2,14 + x2,15 + x2,16 = 1
x3,9 + x3,10 + x3,11 + x3,12 + x3,13 + x3,14 + x3,15 = 1
x4,9 + x4,10 + x4,11 + x4,12 + x4,13 + x4,14 + x4,15 + x4,16 + x4,17 = 1
x5,8 + x5,9 + x5,10 + x5,11 + x5,12 + x5,13 + x5,14 = 1
x6,9 + x6,10 + x6,11 + x6,12 + x6,13 + x6,14 + x6,15 + x6,16 + x6,17 = 1
x7,8 + x7,9 + x7,10 + x7,11 + x7,12 + x7,13 + x7,14 + x7,15 + x7,16 = 1
x8,7 + x8,8 + x8,9 + x8,10 + x8,11 + x8,12 + x8,13 = 1
x9,16 + x9,17 = 1
x10,17 = 1
x11,16 = 1
x12,15 = 1
x13,15 + x13,16 + x13,17 = 1
x14,14 = 1
x15,15 + x15,16 + x15,17 = 1
x16,14 + x16,15 + x16,16 = 1
x17,13 = 1
x18,14 + x18,15 + x18,16 + x18,17 = 1
x19,13 + x19,14 + x19,15 + x19,16 = 1
x20,12 = 1
x21,13 + x21,14 + x21,15 + x21,16 + x21,17 = 1
x22,12 + x22,13 + x22,14 + x22,15 + x22,16 = 1
x23,11 = 1
x24,12 + x24,13 + x24,14 + x24,15 + x24,16 + x24,17 = 1
x25,11 + x25,12 + x25,13 + x25,14 + x25,15 + x25,16 = 1
x26,10 = 1
x27,11 + x27,12 + x27,13 + x27,14 + x27,15 + x27,16 + x27,17 = 1
x28,10 + x28,11 + x28,12 + x28,13 + x28,14 + x28,15 + x28,16 = 1
x29,9 = 1
x30,8 = 1
x31,12 + x31,13 + x31,14 + x31,15 + x31,16 + x31,17 = 1
x32,11 + x32,12 + x32,13 + x32,14 + x32,15 + x32,16 = 1
x33,12 + x33,13 + x33,14 + x33,15 + x33,16 + x33,17 = 1
x34,11 + x34,12 + x34,13 + x34,14 + x34,15 + x34,16 = 1
x35,10 + x35,11 + x35,12 + x35,13 + x35,14 + x35,15 = 1
x36,11 + x36,12 + x36,13 + x36,14 + x36,15 + x36,16 + x36,17 = 1
x37,10 + x37,11 + x37,12 + x37,13 + x37,14 + x37,15 + x37,16 = 1
x38,9 + x38,10 + x38,11 + x38,12 + x38,13 + x38,14 = 1
x39,10 + x39,11 + x39,12 + x39,13 + x39,14 + x39,15 + x39,16 + x39,17 = 1
x40,9 + x40,10 + x40,11 + x40,12 + x40,13 + x40,14 + x40,15 + x40,16 = 1
x41,8 + x41,9 + x41,10 + x41,11 + x41,12 + x41,13 = 1
x42,7 = 1
x43,5 + x43,6 + x43,7 + x43,8 + x43,9 + x43,10 + x43,11 = 1
x44,5 = 1
x45,4 = 1
x46,3 = 1
x47,2 = 1
x48,1 = 1
x49,1 + x49,2 + x49,3 + x49,4 + x49,5 + x49,6 + x49,7 + x49,8 + x49,9 + x49,10 + x49,11 + x49,12 + x49,13 + x49,14 + x49,15 + x49,16 + x49,17 = 1
x50,1 + x50,2 + x50,3 + x50,4 + x50,5 + x50,6 + x50,7 + x50,8 + x50,9 + x50,10 + x50,11 + x50,12 + x50,13 + x50,14 + x50,15 + x50,16 + x50,17 = 1
x48,1 + x49,1 + x50,1 - M2 <= 0
x47,2 + x49,2 + x50,2 - M2 <= 0
x46,3 + x49,3 + x50,3 - M2 <= 0
x45,4 + x49,4 + x50,4 - M2 <= 0
x49,5 + x50,5 - M2 <= 0
x43,5 + x43,4 + x44,5 + x44,4 - M1 <= 0
x49,6 + x50,6 - M2 <= 0
x43,6 + x43,5 + x44,6 + x44,5 - M1 <= 0
x8,7 + x42,7 + x49,7 + x50,7 - M2 <= 0
x5,8 + x7,8 + x8,8 + x30,8 + x41,8 + x49,8 + x50,8 - M2 <= 0
x3,9 + x4,9 + x5,9 + x6,9 + x7,9 + x8,9 + x29,9 + x38,9 + x40,9 + x41,9 + x49,9 + x50,9 - M2 <= 0
x0,10 + x2,10 + x3,10 + x4,10 + x5,10 + x6,10 + x7,10 + x8,10 + x26,10 + x28,10 + x35,10 + x37,10 + x38,10 + x39,10 + x40,10 + x41,10 + x49,10 + x50,10 - M2 <= 0
x0,11 + x1,11 + x2,11 + x3,11 + x4,11 + x5,11 + x6,11 + x7,11 + x8,11 + x23,11 + x25,11 + x27,11 + x28,11 + x32,11 + x34,11 + x35,11 + x36,11 + x37,11 + x38,11 + x39,11 + x40,11 + x41,11 + x49,11 + x50,11 - M2 <= 0
x0,12 + x1,12 + x2,12 + x3,12 + x4,12 + x5,12 + x6,12 + x7,12 + x8,12 + x20,12 + x22,12 + x24,12 + x25,12 + x27,12 + x28,12 + x31,12 + x32,12 + x33,12 + x34,12 + x35,12 + x36,12 + x37,12 + x38,12 + x39,12 + x40,12 + x41,12 + x49,12 + x50,12 - M2 <= 0
x0,13 + x1,13 + x2,13 + x3,13 + x4,13 + x5,13 + x6,13 + x7,13 + x8,13 + x17,13 + x19,13 + x21,13 + x22,13 + x24,13 + x25,13 + x27,13 + x28,13 + x31,13 + x32,13 + x33,13 + x34,13 + x35,13 + x36,13 + x37,13 + x38,13 + x39,13 + x40,13 + x41,13 + x49,13 + x50,13 - M2 <= 0
x0,14 + x1,14 + x2,14 + x3,14 + x4,14 + x5,14 + x6,14 + x7,14 + x14,14 + x16,14 + x18,14 + x19,14 + x21,14 + x22,14 + x24,14 + x25,14 + x27,14 + x28,14 + x31,14 + x32,14 + x33,14 + x34,14 + x35,14 + x36,14 + x37,14 + x38,14 + x39,14 + x40,14 + x49,14 + x50,14 - M2 <= 0
x0,15 + x1,15 + x2,15 + x3,15 + x4,15 + x6,15 + x7,15 + x12,15 + x13,15 + x15,15 + x16,15 + x18,15 + x19,15 + x21,15 + x22,15 + x24,15 + x25,15 + x27,15 + x28,15 + x31,15 + x32,15 + x33,15 + x34,15 + x35,15 + x36,15 + x37,15 + x39,15 + x40,15 + x49,15 + x50,15 - M2 <= 0
x0,16 + x1,16 + x2,16 + x4,16 + x6,16 + x7,16 + x9,16 + x11,16 + x13,16 + x15,16 + x16,16 + x18,16 + x19,16 + x21,16 + x22,16 + x24,16 + x25,16 + x27,16 + x28,16 + x31,16 + x32,16 + x33,16 + x34,16 + x36,16 + x37,16 + x39,16 + x40,16 + x49,16 + x50,16 - M2 <= 0
x0,17 + x1,17 + x4,17 + x6,17 + x9,17 + x10,17 + x13,17 + x15,17 + x18,17 + x21,17 + x24,17 + x27,17 + x31,17 + x33,17 + x36,17 + x39,17 + x49,17 + x50,17 - M2 <= 0
10 x2,10 + 11 x2,11 + 12 x2,12 + 13 x2,13 + 14 x2,14 + 15 x2,15 + 16 x2,16 - 11 x1,11 - 12 x1,12 - 13 x1,13 - 14 x1,14 - 15 x1,15 - 16 x1,16 - 17 x1,17 <= -1
9 x3,9 + 10 x3,10 + 11 x3,11 + 12 x3,12 + 13 x3,13 + 14 x3,14 + 15 x3,15 - 10 x0,10 - 11 x0,11 - 12 x0,12 - 13 x0,13 - 14 x0,14 - 15 x0,15 - 16 x0,16 - 17 x0,17 <= -1
9 x3,9 + 10 x3,10 + 11 x3,11 + 12 x3,12 + 13 x3,13 + 14 x3,14 + 15 x3,15 - 10 x2,10 - 11 x2,11 - 12 x2,12 - 13 x2,13 - 14 x2,14 - 15 x2,15 - 16 x2,16 <= -1
8 x5,8 + 9 x5,9 + 10 x5,10 + 11 x5,11 + 12 x5,12 + 13 x5,13 + 14 x5,14 - 9 x3,9 - 10 x3,10 - 11 x3,11 - 12 x3,12 - 13 x3,13 - 14 x3,14 - 15 x3,15 <= -1
8 x5,8 + 9 x5,9 + 10 x5,10 + 11 x5,11 + 12 x5,12 + 13 x5,13 + 14 x5,14 - 9 x4,9 - 10 x4,10 - 11 x4,11 - 12 x4,12 - 13 x4,13 - 14 x4,14 - 15 x4,15 - 16 x4,16 - 17 x4,17 <= -1
8 x7,8 + 9 x7,9 + 10 x7,10 + 11 x7,11 + 12 x7,12 + 13 x7,13 + 14 x7,14 + 15 x7,15 + 16 x7,16 - 9 x6,9 - 10 x6,10 - 11 x6,11 - 12 x6,12 - 13 x6,13 - 14 x6,14 - 15 x6,15 - 16 x6,16 - 17 x6,17 <= -1
7 x8,7 + 8 x8,8 + 9 x8,9 + 10 x8,10 + 11 x8,11 + 12 x8,12 + 13 x8,13 - 8 x5,8 - 9 x5,9 - 10 x5,10 - 11 x5,11 - 12 x5,12 - 13 x5,13 - 14 x5,14 <= -1
7 x8,7 + 8 x8,8 + 9 x8,9 + 10 x8,10 + 11 x8,11 + 12 x8,12 + 13 x8,13 - 8 x7,8 - 9 x7,9 - 10 x7,10 - 11 x7,11 - 12 x7,12 - 13 x7,13 - 14 x7,14 - 15 x7,15 - 16 x7,16 <= -1
16 x11,16 - 17 x10,17 <= -1
15 x12,15 - 16 x9,16 - 17 x9,17 <= -1
15 x12,15 - 16 x11,16 <= -1
14 x14,14 - 15 x12,15 <= -1
14 x14,14 - 15 x13,15 - 16 x13,16 - 17 x13,17 <= -1
14 x16,14 + 15 x16,15 + 16 x16,16 - 15 x15,15 - 16 x15,16 - 17 x15,17 <= -1
13 x17,13 - 14 x14,14 <= -1
13 x17,13 - 14 x16,14 - 15 x16,15 - 16 x16,16 <= -1
13 x19,13 + 14 x19,14 + 15 x19,15 + 16 x19,16 - 14 x18,14 - 15 x18,15 - 16 x18,16 - 17 x18,17 <= -1
12 x20,12 - 13 x17,13 <= -1
12 x20,12 - 13 x19,13 - 14 x19,14 - 15 x19,15 - 16 x19,16 <= -1
12 x22,12 + 13 x22,13 + 14 x22,14 + 15 x22,15 + 16 x22,16 - 13 x21,13 - 14 x21,14 - 15 x21,15 - 16 x21,16 - 17 x21,17 <= -1
11 x23,11 - 12 x20,12 <= -1
11 x23,11 - 12 x22,12 - 13 x22,13 - 14 x22,14 - 15 x22,15 - 16 x22,16 <= -1
11 x25,11 + 12 x25,12 + 13 x25,13 + 14 x25,14 + 15 x25,15 + 16 x25,16 - 12 x24,12 - 13 x24,13 - 14 x24,14 - 15 x24,15 - 16 x24,16 - 17 x24,17 <= -1
10 x26,10 - 11 x23,11 <= -1
10 x26,10 - 11 x25,11 - 12 x25,12 - 13 x25,13 - 14 x25,14 - 15 x25,15 - 16 x25,16 <= -1
10 x28,10 + 11 x28,11 + 12 x28,12 + 13 x28,13 + 14 x28,14 + 15 x28,15 + 16 x28,16 - 11 x27,11 - 12 x27,12 - 13 x27,13 - 14 x27,14 - 15 x27,15 - 16 x27,16 - 17 x27,17 <= -1
9 x29,9 - 10 x26,10 <= -1
9 x29,9 - 10 x28,10 - 11 x28,11 - 12 x28,12 - 13 x28,13 - 14 x28,14 - 15 x28,15 - 16 x28,16 <= -1
8 x30,8 - 9 x29,9 <= -1
11 x32,11 + 12 x32,12 + 13 x32,13 + 14 x32,14 + 15 x32,15 + 16 x32,16 - 12 x31,12 - 13 x31,13 - 14 x31,14 - 15 x31,15 - 16 x31,16 - 17 x31,17 <= -1
11 x34,11 + 12 x34,12 + 13 x34,13 + 14 x34,14 + 15 x34,15 + 16 x34,16 - 12 x33,12 - 13 x33,13 - 14 x33,14 - 15 x33,15 - 16 x33,16 - 17 x33,17 <= -1
10 x35,10 + 11 x35,11 + 12 x35,12 + 13 x35,13 + 14 x35,14 + 15 x35,15 - 11 x32,11 - 12 x32,12 - 13 x32,13 - 14 x32,14 - 15 x32,15 - 16 x32,16 <= -1
10 x35,10 + 11 x35,11 + 12 x35,12 + 13 x35,13 + 14 x35,14 + 15 x35,15 - 11 x34,11 - 12 x34,12 - 13 x34,13 - 14 x34,14 - 15 x34,15 - 16 x34,16 <= -1
10 x37,10 + 11 x37,11 + 12 x37,12 + 13 x37,13 + 14 x37,14 + 15 x37,15 + 16 x37,16 - 11 x36,11 - 12 x36,12 - 13 x36,13 - 14 x36,14 - 15 x36,15 - 16 x36,16 - 17 x36,17 <= -1
9 x38,9 + 10 x38,10 + 11 x38,11 + 12 x38,12 + 13 x38,13 + 14 x38,14 - 10 x35,10 - 11 x35,11 - 12 x35,12 - 13 x35,13 - 14 x35,14 - 15 x35,15 <= -1
9 x38,9 + 10 x38,10 + 11 x38,11 + 12 x38,12 + 13 x38,13 + 14 x38,14 - 10 x37,10 - 11 x37,11 - 12 x37,12 - 13 x37,13 - 14 x37,14 - 15 x37,15 - 16 x37,16 <= -1
9 x40,9 + 10 x40,10 + 11 x40,11 + 12 x40,12 + 13 x40,13 + 14 x40,14 + 15 x40,15 + 16 x40,16 - 10 x39,10 - 11 x39,11 - 12 x39,12 - 13 x39,13 - 14 x39,14 - 15 x39,15 - 16 x39,16 - 17 x39,17 <= -1
8 x41,8 + 9 x41,9 + 10 x41,10 + 11 x41,11 + 12 x41,12 + 13 x41,13 - 9 x38,9 - 10 x38,10 - 11 x38,11 - 12 x38,12 - 13 x38,13 - 14 x38,14 <= -1
8 x41,8 + 9 x41,9 + 10 x41,10 + 11 x41,11 + 12 x41,12 + 13 x41,13 - 9 x40,9 - 10 x40,10 - 11 x40,11 - 12 x40,12 - 13 x40,13 - 14 x40,14 - 15 x40,15 - 16 x40,16 <= -1
7 x42,7 - 9 x29,9 <= -1
7 x42,7 - 8 x30,8 <= -1
7 x42,7 - 8 x41,8 - 9 x41,9 - 10 x41,10 - 11 x41,11 - 12 x41,12 - 13 x41,13 <= -1
5 x43,5 + 6 x43,6 + 7 x43,7 + 8 x43,8 + 9 x43,9 + 10 x43,10 + 11 x43,11 - 7 x8,7 - 8 x8,8 - 9 x8,9 - 10 x8,10 - 11 x8,11 - 12 x8,12 - 13 x8,13 <= -2
5 x44,5 - 9 x29,9 <= -2
5 x44,5 - 8 x30,8 <= -2
5 x44,5 - 7 x42,7 <= -2
4 x45,4 - 5 x43,5 - 6 x43,6 - 7 x43,7 - 8 x43,8 - 9 x43,9 - 10 x43,10 - 11 x43,11 <= -1
4 x45,4 - 5 x44,5 <= -1
3 x46,3 - 7 x8,7 - 8 x8,8 - 9 x8,9 - 10 x8,10 - 11 x8,11 - 12 x8,12 - 13 x8,13 <= -1
3 x46,3 - 4 x45,4 <= -1
2 x47,2 - 3 x46,3 <= -1
1 x48,1 - 2 x47,2 <= -1
Bounds
0 <= x0,10 <= 1
0 <= x0,11 <= 1
0 <= x0,12 <= 1
0 <= x0,13 <= 1
0 <= x0,14 <= 1
0 <= x0,15 <= 1
0 <= x0,16 <= 1
0 <= x0,17 <= 1
0 <= x1,11 <= 1
0 <= x1,12 <= 1
0 <= x1,13 <= 1
0 <= x1,14 <= 1
0 <= x1,15 <= 1
0 <= x1,16 <= 1
0 <= x1,17 <= 1
0 <= x2,10 <= 1
0 <= x2,11 <= 1
0 <= x2,12 <= 1
0 <= x2,13 <= 1
0 <= x2,14 <= 1
0 <= x2,15 <= 1
0 <= x2,16 <= 1
0 <= x3,9 <= 1
0 <= x3,10 <= 1
0 <= x3,11 <= 1
0 <= x3,12 <= 1
0 <= x3,13 <= 1
0 <= x3,14 <= 1
0 <= x3,15 <= 1
0 <= x4,9 <= 1
0 <= x4,10 <= 1
0 <= x4,11 <= 1
0 <= x4,12 <= 1
0 <= x4,13 <= 1
0 <= x4,14 <= 1
0 <= x4,15 <= 1
0 <= x4,16 <= 1
0 <= x4,17 <= 1
0 <= x5,8 <= 1
0 <= x5,9 <= 1
0 <= x5,10 <= 1
0 <= x5,11 <= 1
0 <= x5,12 <= 1
0 <= x5,13 <= 1
0 <= x5,14 <= 1
0 <= x6,9 <= 1
0 <= x6,10 <= 1
0 <= x6,11 <= 1
0 <= x6,12 <= 1
0 <= x6,13 <= 1
0 <= x6,14 <= 1
0 <= x6,15 <= 1
0 <= x6,16 <= 1
0 <= x6,17 <= 1
0 <= x7,8 <= 1
0 <= x7,9 <= 1
0 <= x7,10 <= 1
0 <= x7,11 <= 1
0 <= x7,12 <= 1
0 <= x7,13 <= 1
0 <= x7,14 <= 1
0 <= x7,15 <= 1
0 <= x7,16 <= 1
0 <= x8,7 <= 1
0 <= x8,8 <= 1
0 <= x8,9 <= 1
0 <= x8,10 <= 1
0 <= x8,11 <= 1
0 <= x8,12 <= 1
0 <= x8,13 <= 1
0 <= x9,16 <= 1
0 <= x9,17 <= 1
0 <= x10,17 <= 1
0 <= x11,16 <= 1
0 <= x12,15 <= 1
0 <= x13,15 <= 1
0 <= x13,16 <= 1
0 <= x13,17 <= 1
0 <= x14,14 <= 1
0 <= x15,15 <= 1
0 <= x15,16 <= 1
0 <= x15,17 <= 1
0 <= x16,14 <= 1
0 <= x16,15 <= 1
0 <= x16,16 <= 1
0 <= x17,13 <= 1
0 <= x18,14 <= 1
0 <= x18,15 <= 1
0 <= x18,16 <= 1
0 <= x18,17 <= 1
0 <= x19,13 <= 1
0 <= x19,14 <= 1
0 <= x19,15 <= 1
0 <= x19,16 <= 1
0 <= x20,12 <= 1
0 <= x21,13 <= 1
0 <= x21,14 <= 1
0 <= x21,15 <= 1
0 <= x21,16 <= 1
0 <= x21,17 <= 1
0 <= x22,12 <= 1
0 <= x22,13 <= 1
0 <= x22,14 <= 1
0 <= x22,15 <= 1
0 <= x22,16 <= 1
0 <= x23,11 <= 1
0 <= x24,12 <= 1
0 <= x24,13 <= 1
0 <= x24,14 <= 1
0 <= x24,15 <= 1
0 <= x24,16 <= 1
0 <= x24,17 <= 1
0 <= x25,11 <= 1
0 <= x25,12 <= 1
0 <= x25,13 <= 1
0 <= x25,14 <= 1
0 <= x25,15 <= 1
0 <= x25,16 <= 1
0 <= x26,10 <= 1
0 <= x27,11 <= 1
0 <= x27,12 <= 1
0 <= x27,13 <= 1
0 <= x27,14 <= 1
0 <= x27,15 <= 1
0 <= x27,16 <= 1
0 <= x27,17 <= 1
0 <= x28,10 <= 1
0 <= x28,11 <= 1
0 <= x28,12 <= 1
0 <= x28,13 <= 1
0 <= x28,14 <= 1
0 <= x28,15 <= 1
0 <= x28,16 <= 1
0 <= x29,9 <= 1
0 <= x30,8 <= 1
0 <= x31,12 <= 1
0 <= x31,13 <= 1
0 <= x31,14 <= 1
0 <= x31,15 <= 1
0 <= x31,16 <= 1
0 <= x31,17 <= 1
0 <= x32,11 <= 1
0 <= x32,12 <= 1
0 <= x32,13 <= 1
0 <= x32,14 <= 1
0 <= x32,15 <= 1
0 <= x32,16 <= 1
0 <= x33,12 <= 1
0 <= x33,13 <= 1
0 <= x33,14 <= 1
0 <= x33,15 <= 1
0 <= x33,16 <= 1
0 <= x33,17 <= 1
0 <= x34,11 <= 1
0 <= x34,12 <= 1
0 <= x34,13 <= 1
0 <= x34,14 <= 1
0 <= x34,15 <= 1
0 <= x34,16 <= 1
0 <= x35,10 <= 1
0 <= x35,11 <= 1
0 <= x35,12 <= 1
0 <= x35,13 <= 1
0 <= x35,14 <= 1
0 <= x35,15 <= 1
0 <= x36,11 <= 1
0 <= x36,12 <= 1
0 <= x36,13 <= 1
0 <= x36,14 <= 1
0 <= x36,15 <= 1
0 <= x36,16 <= 1
0 <= x36,17 <= 1
0 <= x37,10 <= 1
0 <= x37,11 <= 1
0 <= x37,12 <= 1
0 <= x37,13 <= 1
0 <= x37,14 <= 1
0 <= x37,15 <= 1
0 <= x37,16 <= 1
0 <= x38,9 <= 1
0 <= x38,10 <= 1
0 <= x38,11 <= 1
0 <= x38,12 <= 1
0 <= x38,13 <= 1
0 <= x38,14 <= 1
0 <= x39,10 <= 1
0 <= x39,11 <= 1
0 <= x39,12 <= 1
0 <= x39,13 <= 1
0 <= x39,14 <= 1
0 <= x39,15 <= 1
0 <= x39,16 <= 1
0 <= x39,17 <= 1
0 <= x40,9 <= 1
0 <= x40,10 <= 1
0 <= x40,11 <= 1
0 <= x40,12 <= 1
0 <= x40,13 <= 1
0 <= x40,14 <= 1
0 <= x40,15 <= 1
0 <= x40,16 <= 1
0 <= x41,8 <= 1
0 <= x41,9 <= 1
0 <= x41,10 <= 1
0 <= x41,11 <= 1
0 <= x41,12 <= 1
0 <= x41,13 <= 1
0 <= x42,7 <= 1
0 <= x43,5 <= 1
0 <= x43,6 <= 1
0 <= x43,7 <= 1
0 <= x43,8 <= 1
0 <= x43,9 <= 1
0 <= x43,10 <= 1
0 <= x43,11 <= 1
0 <= x44,5 <= 1
0 <= x45,4 <= 1
0 <= x46,3 <= 1
0 <= x47,2 <= 1
0 <= x48,1 <= 1
0 <= x49,1 <= 1
0 <= x49,2 <= 1
0 <= x49,3 <= 1
0 <= x49,4 <= 1
0 <= x49,5 <= 1
0 <= x49,6 <= 1
0 <= x49,7 <= 1
0 <= x49,8 <= 1
0 <= x49,9 <= 1
0 <= x49,10 <= 1
0 <= x49,11 <= 1
0 <= x49,12 <= 1
0 <= x49,13 <= 1
0 <= x49,14 <= 1
0 <= x49,15 <= 1
0 <= x49,16 <= 1
0 <= x49,17 <= 1
0 <= x50,1 <= 1
0 <= x50,2 <= 1
0 <= x50,3 <= 1
0 <= x50,4 <= 1
0 <= x50,5 <= 1
0 <= x50,6 <= 1
0 <= x50,7 <= 1
0 <= x50,8 <= 1
0 <= x50,9 <= 1
0 <= x50,10 <= 1
0 <= x50,11 <= 1
0 <= x50,12 <= 1
0 <= x50,13 <= 1
0 <= x50,14 <= 1
0 <= x50,15 <= 1
0 <= x50,16 <= 1
0 <= x50,17 <= 1
M1 >= 1
M2 >= 1
Generals
x0,10
x0,11
x0,12
x0,13
x0,14
x0,15
x0,16
x0,17
x1,11
x1,12
x1,13
x1,14
x1,15
x1,16
x1,17
x2,10
x2,11
x2,12
x2,13
x2,14
x2,15
x2,16
x3,9
x3,10
x3,11
x3,12
x3,13
x3,14
x3,15
x4,9
x4,10
x4,11
x4,12
x4,13
x4,14
x4,15
x4,16
x4,17
x5,8
x5,9
x5,10
x5,11
x5,12
x5,13
x5,14
x6,9
x6,10
x6,11
x6,12
x6,13
x6,14
x6,15
x6,16
x6,17
x7,8
x7,9
x7,10
x7,11
x7,12
x7,13
x7,14
x7,15
x7,16
x8,7
x8,8
x8,9
x8,10
x8,11
x8,12
x8,13
x9,16
x9,17
x10,17
x11,16
x12,15
x13,15
x13,16
x13,17
x14,14
x15,15
x15,16
x15,17
x16,14
x16,15
x16,16
x17,13
x18,14
x18,15
x18,16
x18,17
x19,13
x19,14
x19,15
x19,16
x20,12
x21,13
x21,14
x21,15
x21,16
x21,17
x22,12
x22,13
x22,14
x22,15
x22,16
x23,11
x24,12
x24,13
x24,14
x24,15
x24,16
x24,17
x25,11
x25,12
x25,13
x25,14
x25,15
x25,16
x26,10
x27,11
x27,12
x27,13
x27,14
x27,15
x27,16
x27,17
x28,10
x28,11
x28,12
x28,13
x28,14
x28,15
x28,16
x29,9
x30,8
x31,12
x31,13
x31,14
x31,15
x31,16
x31,17
x32,11
x32,12
x32,13
x32,14
x32,15
x32,16
x33,12
x33,13
x33,14
x33,15
x33,16
x33,17
x34,11
x34,12
x34,13
x34,14
x34,15
x34,16
x35,10
x35,11
x35,12
x35,13
x35,14
x35,15
x36,11
x36,12
x36,13
x36,14
x36,15
x36,16
x36,17
x37,10
x37,11
x37,12
x37,13
x37,14
x37,15
x37,16
x38,9
x38,10
x38,11
x38,12
x38,13
x38,14
x39,10
x39,11
x39,12
x39,13
x39,14
x39,15
x39,16
x39,17
x40,9
x40,10
x40,11
x40,12
x40,13
x40,14
x40,15
x40,16
x41,8
x41,9
x41,10
x41,11
x41,12
x41,13
x42,7
x43,5
x43,6
x43,7
x43,8
x43,9
x43,10
x43,11
x44,5
x45,4
x46,3
x47,2
x48,1
x49,1
x49,2
x49,3
x49,4
x49,5
x49,6
x49,7
x49,8
x49,9
x49,10
x49,11
x49,12
x49,13
x49,14
x49,15
x49,16
x49,17
x50,1
x50,2
x50,3
x50,4
x50,5
x50,6
x50,7
x50,8
x50,9
x50,10
x50,11
x50,12
x50,13
x50,14
x50,15
x50,16
x50,17
M1
M2
End
