TC_ILP/h2v2_smooth_downsample_dfg__6_1.0.sol
<?xml version = "1.0" encoding="UTF-8" standalone="yes"?>
<CPLEXSolution version="1.2">
 <header
   problemName="h2v2_smooth_downsample_dfg__6_1.0.lp"
   solutionName="incumbent"
   solutionIndex="-1"
   objectiveValue="6"
   solutionTypeValue="3"
   solutionTypeString="primal"
   solutionStatusValue="101"
   solutionStatusString="integer optimal solution"
   solutionMethodString="mip"
   primalFeasible="1"
   dualFeasible="1"
   MIPNodes="0"
   MIPIterations="118"
   writeLevel="1"/>
 <quality
   epInt="1.0000000000000001e-05"
   epRHS="9.9999999999999995e-07"
   maxIntInfeas="0"
   maxPrimalInfeas="0"
   maxX="5"
   maxSlack="6"/>
 <linearConstraints>
  <constraint name="c1" index="0" slack="0"/>
  <constraint name="c2" index="1" slack="0"/>
  <constraint name="c3" index="2" slack="0"/>
  <constraint name="c4" index="3" slack="0"/>
  <constraint name="c5" index="4" slack="0"/>
  <constraint name="c6" index="5" slack="0"/>
  <constraint name="c7" index="6" slack="0"/>
  <constraint name="c8" index="7" slack="0"/>
  <constraint name="c9" index="8" slack="0"/>
  <constraint name="c10" index="9" slack="0"/>
  <constraint name="c11" index="10" slack="0"/>
  <constraint name="c12" index="11" slack="0"/>
  <constraint name="c13" index="12" slack="0"/>
  <constraint name="c14" index="13" slack="0"/>
  <constraint name="c15" index="14" slack="0"/>
  <constraint name="c16" index="15" slack="0"/>
  <constraint name="c17" index="16" slack="0"/>
  <constraint name="c18" index="17" slack="0"/>
  <constraint name="c19" index="18" slack="0"/>
  <constraint name="c20" index="19" slack="0"/>
  <constraint name="c21" index="20" slack="0"/>
  <constraint name="c22" index="21" slack="0"/>
  <constraint name="c23" index="22" slack="0"/>
  <constraint name="c24" index="23" slack="0"/>
  <constraint name="c25" index="24" slack="0"/>
  <constraint name="c26" index="25" slack="0"/>
  <constraint name="c27" index="26" slack="0"/>
  <constraint name="c28" index="27" slack="0"/>
  <constraint name="c29" index="28" slack="0"/>
  <constraint name="c30" index="29" slack="0"/>
  <constraint name="c31" index="30" slack="0"/>
  <constraint name="c32" index="31" slack="0"/>
  <constraint name="c33" index="32" slack="0"/>
  <constraint name="c34" index="33" slack="0"/>
  <constraint name="c35" index="34" slack="0"/>
  <constraint name="c36" index="35" slack="0"/>
  <constraint name="c37" index="36" slack="0"/>
  <constraint name="c38" index="37" slack="0"/>
  <constraint name="c39" index="38" slack="0"/>
  <constraint name="c40" index="39" slack="0"/>
  <constraint name="c41" index="40" slack="0"/>
  <constraint name="c42" index="41" slack="0"/>
  <constraint name="c43" index="42" slack="0"/>
  <constraint name="c44" index="43" slack="0"/>
  <constraint name="c45" index="44" slack="0"/>
  <constraint name="c46" index="45" slack="0"/>
  <constraint name="c47" index="46" slack="0"/>
  <constraint name="c48" index="47" slack="0"/>
  <constraint name="c49" index="48" slack="0"/>
  <constraint name="c50" index="49" slack="0"/>
  <constraint name="c51" index="50" slack="0"/>
  <constraint name="c52" index="51" slack="4"/>
  <constraint name="c53" index="52" slack="4"/>
  <constraint name="c54" index="53" slack="4"/>
  <constraint name="c55" index="54" slack="4"/>
  <constraint name="c56" index="55" slack="5"/>
  <constraint name="c57" index="56" slack="0"/>
  <constraint name="c58" index="57" slack="3"/>
  <constraint name="c59" index="58" slack="0"/>
  <constraint name="c60" index="59" slack="4"/>
  <constraint name="c61" index="60" slack="3"/>
  <constraint name="c62" index="61" slack="1"/>
  <constraint name="c63" index="62" slack="0"/>
  <constraint name="c64" index="63" slack="0"/>
  <constraint name="c65" index="64" slack="1"/>
  <constraint name="c66" index="65" slack="1"/>
  <constraint name="c67" index="66" slack="0"/>
  <constraint name="c68" index="67" slack="2"/>
  <constraint name="c69" index="68" slack="0"/>
  <constraint name="c70" index="69" slack="0"/>
  <constraint name="c71" index="70" slack="0"/>
  <constraint name="c72" index="71" slack="1"/>
  <constraint name="c73" index="72" slack="4"/>
  <constraint name="c74" index="73" slack="0"/>
  <constraint name="c75" index="74" slack="0"/>
  <constraint name="c76" index="75" slack="6"/>
  <constraint name="c77" index="76" slack="0"/>
  <constraint name="c78" index="77" slack="0"/>
  <constraint name="c79" index="78" slack="0"/>
  <constraint name="c80" index="79" slack="0"/>
  <constraint name="c81" index="80" slack="0"/>
  <constraint name="c82" index="81" slack="0"/>
  <constraint name="c83" index="82" slack="0"/>
  <constraint name="c84" index="83" slack="2"/>
  <constraint name="c85" index="84" slack="0"/>
  <constraint name="c86" index="85" slack="0"/>
  <constraint name="c87" index="86" slack="1"/>
  <constraint name="c88" index="87" slack="0"/>
  <constraint name="c89" index="88" slack="1"/>
  <constraint name="c90" index="89" slack="0"/>
  <constraint name="c91" index="90" slack="0"/>
  <constraint name="c92" index="91" slack="2"/>
  <constraint name="c93" index="92" slack="0"/>
  <constraint name="c94" index="93" slack="0"/>
  <constraint name="c95" index="94" slack="1"/>
  <constraint name="c96" index="95" slack="1"/>
  <constraint name="c97" index="96" slack="0"/>
  <constraint name="c98" index="97" slack="0"/>
  <constraint name="c99" index="98" slack="0"/>
  <constraint name="c100" index="99" slack="0"/>
  <constraint name="c101" index="100" slack="2"/>
  <constraint name="c102" index="101" slack="0"/>
  <constraint name="c103" index="102" slack="3"/>
  <constraint name="c104" index="103" slack="2"/>
  <constraint name="c105" index="104" slack="0"/>
  <constraint name="c106" index="105" slack="3"/>
  <constraint name="c107" index="106" slack="1"/>
  <constraint name="c108" index="107" slack="0"/>
  <constraint name="c109" index="108" slack="0"/>
  <constraint name="c110" index="109" slack="1"/>
  <constraint name="c111" index="110" slack="0"/>
  <constraint name="c112" index="111" slack="0"/>
  <constraint name="c113" index="112" slack="0"/>
  <constraint name="c114" index="113" slack="2"/>
  <constraint name="c115" index="114" slack="1"/>
  <constraint name="c116" index="115" slack="0"/>
  <constraint name="c117" index="116" slack="2"/>
  <constraint name="c118" index="117" slack="0"/>
  <constraint name="c119" index="118" slack="5"/>
  <constraint name="c120" index="119" slack="0"/>
  <constraint name="c121" index="120" slack="0"/>
  <constraint name="c122" index="121" slack="0"/>
 </linearConstraints>
 <variables>
  <variable name="M1" index="0" value="1"/>
  <variable name="M2" index="1" value="5"/>
  <variable name="x0,10" index="2" value="-0"/>
  <variable name="x0,11" index="3" value="-0"/>
  <variable name="x0,12" index="4" value="0"/>
  <variable name="x0,13" index="5" value="1"/>
  <variable name="x0,14" index="6" value="-0"/>
  <variable name="x0,15" index="7" value="-0"/>
  <variable name="x0,16" index="8" value="-0"/>
  <variable name="x0,17" index="9" value="-0"/>
  <variable name="x1,11" index="10" value="-0"/>
  <variable name="x1,12" index="11" value="-0"/>
  <variable name="x1,13" index="12" value="-0"/>
  <variable name="x1,14" index="13" value="-0"/>
  <variable name="x1,15" index="14" value="-0"/>
  <variable name="x1,16" index="15" value="-0"/>
  <variable name="x1,17" index="16" value="1"/>
  <variable name="x2,10" index="17" value="-0"/>
  <variable name="x2,11" index="18" value="-0"/>
  <variable name="x2,12" index="19" value="-0"/>
  <variable name="x2,13" index="20" value="-0"/>
  <variable name="x2,14" index="21" value="-0"/>
  <variable name="x2,15" index="22" value="-0"/>
  <variable name="x2,16" index="23" value="1"/>
  <variable name="x3,9" index="24" value="-0"/>
  <variable name="x3,10" index="25" value="-0"/>
  <variable name="x3,11" index="26" value="1"/>
  <variable name="x3,12" index="27" value="-0"/>
  <variable name="x3,13" index="28" value="-0"/>
  <variable name="x3,14" index="29" value="-0"/>
  <variable name="x3,15" index="30" value="0"/>
  <variable name="x4,9" index="31" value="-0"/>
  <variable name="x4,10" index="32" value="-0"/>
  <variable name="x4,11" index="33" value="1"/>
  <variable name="x4,12" index="34" value="-0"/>
  <variable name="x4,13" index="35" value="-0"/>
  <variable name="x4,14" index="36" value="-0"/>
  <variable name="x4,15" index="37" value="0"/>
  <variable name="x4,16" index="38" value="-0"/>
  <variable name="x4,17" index="39" value="-0"/>
  <variable name="x5,8" index="40" value="-0"/>
  <variable name="x5,9" index="41" value="-0"/>
  <variable name="x5,10" index="42" value="1"/>
  <variable name="x5,11" index="43" value="-0"/>
  <variable name="x5,12" index="44" value="-0"/>
  <variable name="x5,13" index="45" value="-0"/>
  <variable name="x5,14" index="46" value="0"/>
  <variable name="x6,9" index="47" value="-0"/>
  <variable name="x6,10" index="48" value="-0"/>
  <variable name="x6,11" index="49" value="-0"/>
  <variable name="x6,12" index="50" value="-0"/>
  <variable name="x6,13" index="51" value="-0"/>
  <variable name="x6,14" index="52" value="-0"/>
  <variable name="x6,15" index="53" value="-0"/>
  <variable name="x6,16" index="54" value="-0"/>
  <variable name="x6,17" index="55" value="1"/>
  <variable name="x7,8" index="56" value="-0"/>
  <variable name="x7,9" index="57" value="-0"/>
  <variable name="x7,10" index="58" value="1"/>
  <variable name="x7,11" index="59" value="-0"/>
  <variable name="x7,12" index="60" value="-0"/>
  <variable name="x7,13" index="61" value="-0"/>
  <variable name="x7,14" index="62" value="-0"/>
  <variable name="x7,15" index="63" value="-0"/>
  <variable name="x7,16" index="64" value="-0"/>
  <variable name="x8,7" index="65" value="0"/>
  <variable name="x8,8" index="66" value="0"/>
  <variable name="x8,9" index="67" value="1"/>
  <variable name="x8,10" index="68" value="0"/>
  <variable name="x8,11" index="69" value="-0"/>
  <variable name="x8,12" index="70" value="-0"/>
  <variable name="x8,13" index="71" value="-0"/>
  <variable name="x9,16" index="72" value="1"/>
  <variable name="x9,17" index="73" value="0"/>
  <variable name="x10,17" index="74" value="1"/>
  <variable name="x11,16" index="75" value="1"/>
  <variable name="x12,15" index="76" value="1"/>
  <variable name="x13,15" index="77" value="1"/>
  <variable name="x13,16" index="78" value="-0"/>
  <variable name="x13,17" index="79" value="-0"/>
  <variable name="x14,14" index="80" value="1"/>
  <variable name="x15,15" index="81" value="-0"/>
  <variable name="x15,16" index="82" value="-0"/>
  <variable name="x15,17" index="83" value="1"/>
  <variable name="x16,14" index="84" value="1"/>
  <variable name="x16,15" index="85" value="-0"/>
  <variable name="x16,16" index="86" value="-0"/>
  <variable name="x17,13" index="87" value="1"/>
  <variable name="x18,14" index="88" value="0"/>
  <variable name="x18,15" index="89" value="-0"/>
  <variable name="x18,16" index="90" value="1"/>
  <variable name="x18,17" index="91" value="-0"/>
  <variable name="x19,13" index="92" value="0"/>
  <variable name="x19,14" index="93" value="1"/>
  <variable name="x19,15" index="94" value="-0"/>
  <variable name="x19,16" index="95" value="-0"/>
  <variable name="x20,12" index="96" value="1"/>
  <variable name="x21,13" index="97" value="0"/>
  <variable name="x21,14" index="98" value="-0"/>
  <variable name="x21,15" index="99" value="1"/>
  <variable name="x21,16" index="100" value="-0"/>
  <variable name="x21,17" index="101" value="-0"/>
  <variable name="x22,12" index="102" value="0"/>
  <variable name="x22,13" index="103" value="-0"/>
  <variable name="x22,14" index="104" value="1"/>
  <variable name="x22,15" index="105" value="-0"/>
  <variable name="x22,16" index="106" value="-0"/>
  <variable name="x23,11" index="107" value="1"/>
  <variable name="x24,12" index="108" value="0"/>
  <variable name="x24,13" index="109" value="1"/>
  <variable name="x24,14" index="110" value="-0"/>
  <variable name="x24,15" index="111" value="-0"/>
  <variable name="x24,16" index="112" value="-0"/>
  <variable name="x24,17" index="113" value="-0"/>
  <variable name="x25,11" index="114" value="0"/>
  <variable name="x25,12" index="115" value="1"/>
  <variable name="x25,13" index="116" value="-0"/>
  <variable name="x25,14" index="117" value="-0"/>
  <variable name="x25,15" index="118" value="-0"/>
  <variable name="x25,16" index="119" value="-0"/>
  <variable name="x26,10" index="120" value="1"/>
  <variable name="x27,11" index="121" value="-0"/>
  <variable name="x27,12" index="122" value="1"/>
  <variable name="x27,13" index="123" value="-0"/>
  <variable name="x27,14" index="124" value="-0"/>
  <variable name="x27,15" index="125" value="-0"/>
  <variable name="x27,16" index="126" value="-0"/>
  <variable name="x27,17" index="127" value="-0"/>
  <variable name="x28,10" index="128" value="1"/>
  <variable name="x28,11" index="129" value="-0"/>
  <variable name="x28,12" index="130" value="0"/>
  <variable name="x28,13" index="131" value="-0"/>
  <variable name="x28,14" index="132" value="-0"/>
  <variable name="x28,15" index="133" value="-0"/>
  <variable name="x28,16" index="134" value="-0"/>
  <variable name="x29,9" index="135" value="1"/>
  <variable name="x30,8" index="136" value="1"/>
  <variable name="x31,12" index="137" value="1"/>
  <variable name="x31,13" index="138" value="-0"/>
  <variable name="x31,14" index="139" value="-0"/>
  <variable name="x31,15" index="140" value="-0"/>
  <variable name="x31,16" index="141" value="-0"/>
  <variable name="x31,17" index="142" value="0"/>
  <variable name="x32,11" index="143" value="1"/>
  <variable name="x32,12" index="144" value="-0"/>
  <variable name="x32,13" index="145" value="-0"/>
  <variable name="x32,14" index="146" value="-0"/>
  <variable name="x32,15" index="147" value="-0"/>
  <variable name="x32,16" index="148" value="-0"/>
  <variable name="x33,12" index="149" value="0"/>
  <variable name="x33,13" index="150" value="-0"/>
  <variable name="x33,14" index="151" value="-0"/>
  <variable name="x33,15" index="152" value="-0"/>
  <variable name="x33,16" index="153" value="-0"/>
  <variable name="x33,17" index="154" value="1"/>
  <variable name="x34,11" index="155" value="0"/>
  <variable name="x34,12" index="156" value="-0"/>
  <variable name="x34,13" index="157" value="-0"/>
  <variable name="x34,14" index="158" value="1"/>
  <variable name="x34,15" index="159" value="-0"/>
  <variable name="x34,16" index="160" value="-0"/>
  <variable name="x35,10" index="161" value="1"/>
  <variable name="x35,11" index="162" value="-0"/>
  <variable name="x35,12" index="163" value="-0"/>
  <variable name="x35,13" index="164" value="-0"/>
  <variable name="x35,14" index="165" value="-0"/>
  <variable name="x35,15" index="166" value="-0"/>
  <variable name="x36,11" index="167" value="-0"/>
  <variable name="x36,12" index="168" value="0"/>
  <variable name="x36,13" index="169" value="-0"/>
  <variable name="x36,14" index="170" value="-0"/>
  <variable name="x36,15" index="171" value="-0"/>
  <variable name="x36,16" index="172" value="1"/>
  <variable name="x36,17" index="173" value="-0"/>
  <variable name="x37,10" index="174" value="-0"/>
  <variable name="x37,11" index="175" value="-0"/>
  <variable name="x37,12" index="176" value="-0"/>
  <variable name="x37,13" index="177" value="1"/>
  <variable name="x37,14" index="178" value="-0"/>
  <variable name="x37,15" index="179" value="-0"/>
  <variable name="x37,16" index="180" value="0"/>
  <variable name="x38,9" index="181" value="1"/>
  <variable name="x38,10" index="182" value="-0"/>
  <variable name="x38,11" index="183" value="-0"/>
  <variable name="x38,12" index="184" value="-0"/>
  <variable name="x38,13" index="185" value="-0"/>
  <variable name="x38,14" index="186" value="-0"/>
  <variable name="x39,10" index="187" value="0"/>
  <variable name="x39,11" index="188" value="1"/>
  <variable name="x39,12" index="189" value="-0"/>
  <variable name="x39,13" index="190" value="-0"/>
  <variable name="x39,14" index="191" value="-0"/>
  <variable name="x39,15" index="192" value="-0"/>
  <variable name="x39,16" index="193" value="-0"/>
  <variable name="x39,17" index="194" value="-0"/>
  <variable name="x40,9" index="195" value="1"/>
  <variable name="x40,10" index="196" value="0"/>
  <variable name="x40,11" index="197" value="-0"/>
  <variable name="x40,12" index="198" value="-0"/>
  <variable name="x40,13" index="199" value="-0"/>
  <variable name="x40,14" index="200" value="-0"/>
  <variable name="x40,15" index="201" value="-0"/>
  <variable name="x40,16" index="202" value="-0"/>
  <variable name="x41,8" index="203" value="1"/>
  <variable name="x41,9" index="204" value="-0"/>
  <variable name="x41,10" index="205" value="-0"/>
  <variable name="x41,11" index="206" value="-0"/>
  <variable name="x41,12" index="207" value="-0"/>
  <variable name="x41,13" index="208" value="-0"/>
  <variable name="x42,7" index="209" value="1"/>
  <variable name="x43,5" index="210" value="0"/>
  <variable name="x43,6" index="211" value="0"/>
  <variable name="x43,7" index="212" value="1"/>
  <variable name="x43,8" index="213" value="0"/>
  <variable name="x43,9" index="214" value="0"/>
  <variable name="x43,10" index="215" value="0"/>
  <variable name="x43,11" index="216" value="0"/>
  <variable name="x44,5" index="217" value="1"/>
  <variable name="x45,4" index="218" value="1"/>
  <variable name="x46,3" index="219" value="1"/>
  <variable name="x47,2" index="220" value="1"/>
  <variable name="x48,1" index="221" value="1"/>
  <variable name="x49,1" index="222" value="0"/>
  <variable name="x49,2" index="223" value="0"/>
  <variable name="x49,3" index="224" value="0"/>
  <variable name="x49,4" index="225" value="0"/>
  <variable name="x49,5" index="226" value="-0"/>
  <variable name="x49,6" index="227" value="1"/>
  <variable name="x49,7" index="228" value="0"/>
  <variable name="x49,8" index="229" value="0"/>
  <variable name="x49,9" index="230" value="0"/>
  <variable name="x49,10" index="231" value="0"/>
  <variable name="x49,11" index="232" value="0"/>
  <variable name="x49,12" index="233" value="0"/>
  <variable name="x49,13" index="234" value="0"/>
  <variable name="x49,14" index="235" value="0"/>
  <variable name="x49,15" index="236" value="0"/>
  <variable name="x49,16" index="237" value="0"/>
  <variable name="x49,17" index="238" value="0"/>
  <variable name="x50,1" index="239" value="0"/>
  <variable name="x50,2" index="240" value="0"/>
  <variable name="x50,3" index="241" value="0"/>
  <variable name="x50,4" index="242" value="0"/>
  <variable name="x50,5" index="243" value="-0"/>
  <variable name="x50,6" index="244" value="1"/>
  <variable name="x50,7" index="245" value="0"/>
  <variable name="x50,8" index="246" value="0"/>
  <variable name="x50,9" index="247" value="0"/>
  <variable name="x50,10" index="248" value="0"/>
  <variable name="x50,11" index="249" value="0"/>
  <variable name="x50,12" index="250" value="0"/>
  <variable name="x50,13" index="251" value="0"/>
  <variable name="x50,14" index="252" value="0"/>
  <variable name="x50,15" index="253" value="0"/>
  <variable name="x50,16" index="254" value="0"/>
  <variable name="x50,17" index="255" value="0"/>
  <variable name="x43,4" index="256" value="0"/>
  <variable name="x44,4" index="257" value="0"/>
  <variable name="x44,6" index="258" value="0"/>
 </variables>
</CPLEXSolution>
